p cnf 757 1677
1 -2 0
2 -1 0
3 4 0
5 4 0
-3 -5 -4 0
-6 4 -7 0
6 -4 -7 0
7 -4 -6 0
6 4 7 0
-7 0
8 9 0
10 9 0
-8 -10 -9 0
-5 9 -11 0
5 -9 -11 0
11 -9 -5 0
5 9 11 0
-11 0
12 13 0
14 13 0
-12 -14 -13 0
-10 13 -15 0
10 -13 -15 0
15 -13 -10 0
10 13 15 0
-15 0
16 17 0
18 17 0
-16 -18 -17 0
-14 17 -19 0
14 -17 -19 0
19 -17 -14 0
14 17 19 0
-19 0
20 21 0
22 21 0
-20 -22 -21 0
-18 21 -23 0
18 -21 -23 0
23 -21 -18 0
18 21 23 0
-23 0
24 25 0
26 25 0
-24 -26 -25 0
-22 25 -27 0
22 -25 -27 0
27 -25 -22 0
22 25 27 0
-27 0
28 29 0
30 29 0
-28 -30 -29 0
-26 29 -31 0
26 -29 -31 0
31 -29 -26 0
26 29 31 0
-31 0
32 33 0
34 33 0
-32 -34 -33 0
-30 33 -35 0
30 -33 -35 0
35 -33 -30 0
30 33 35 0
-35 0
36 37 0
38 37 0
-36 -38 -37 0
-34 37 -39 0
34 -37 -39 0
39 -37 -34 0
34 37 39 0
-39 0
40 41 0
42 41 0
-40 -42 -41 0
-38 41 -43 0
38 -41 -43 0
43 -41 -38 0
38 41 43 0
-43 0
44 45 0
46 45 0
-44 -46 -45 0
-42 45 -47 0
42 -45 -47 0
47 -45 -42 0
42 45 47 0
-47 0
48 49 0
50 49 0
-48 -50 -49 0
-46 49 -51 0
46 -49 -51 0
51 -49 -46 0
46 49 51 0
-51 0
52 53 0
54 53 0
-52 -54 -53 0
-50 53 -55 0
50 -53 -55 0
55 -53 -50 0
50 53 55 0
-55 0
56 57 0
58 57 0
-56 -58 -57 0
-54 57 -59 0
54 -57 -59 0
59 -57 -54 0
54 57 59 0
-59 0
32 60 0
36 60 0
40 60 0
44 60 0
48 60 0
52 60 0
56 60 0
61 60 0
-62 0
-58 60 -63 0
58 -60 -63 0
63 -60 -58 0
58 60 63 0
-63 0
64 65 0
66 65 0
-64 -66 -65 0
-67 65 -68 0
67 -65 -68 0
68 -65 -67 0
67 65 68 0
-68 0
69 70 0
71 70 0
-69 -71 -70 0
-66 70 -72 0
66 -70 -72 0
72 -70 -66 0
66 70 72 0
-72 0
73 74 0
75 74 0
-73 -75 -74 0
-71 74 -76 0
71 -74 -76 0
76 -74 -71 0
71 74 76 0
-76 0
77 78 0
79 78 0
-77 -79 -78 0
-75 78 -80 0
75 -78 -80 0
80 -78 -75 0
75 78 80 0
-80 0
81 82 0
83 82 0
-81 -83 -82 0
-79 82 -84 0
79 -82 -84 0
84 -82 -79 0
79 82 84 0
-84 0
85 86 0
87 86 0
-85 -87 -86 0
-83 86 -88 0
83 -86 -88 0
88 -86 -83 0
83 86 88 0
-88 0
89 90 0
91 90 0
-89 -91 -90 0
-87 90 -92 0
87 -90 -92 0
92 -90 -87 0
87 90 92 0
-92 0
93 94 0
95 94 0
-93 -95 -94 0
-91 94 -96 0
91 -94 -96 0
96 -94 -91 0
91 94 96 0
-96 0
97 98 0
99 98 0
-97 -99 -98 0
-95 98 -100 0
95 -98 -100 0
100 -98 -95 0
95 98 100 0
-100 0
101 102 0
103 102 0
-101 -103 -102 0
-99 102 -104 0
99 -102 -104 0
104 -102 -99 0
99 102 104 0
-104 0
105 106 0
107 106 0
-105 -107 -106 0
-103 106 -108 0
103 -106 -108 0
108 -106 -103 0
103 106 108 0
-108 0
109 110 0
111 110 0
-109 -111 -110 0
-107 110 -112 0
107 -110 -112 0
112 -110 -107 0
107 110 112 0
-112 0
85 113 0
89 113 0
93 113 0
97 113 0
101 113 0
105 113 0
109 113 0
114 113 0
-115 0
-111 113 -116 0
111 -113 -116 0
116 -113 -111 0
111 113 116 0
-116 0
117 118 0
119 118 0
-117 -119 -118 0
-120 118 -121 0
120 -118 -121 0
121 -118 -120 0
120 118 121 0
-121 0
122 123 0
124 123 0
-122 -124 -123 0
-119 123 -125 0
119 -123 -125 0
125 -123 -119 0
119 123 125 0
-125 0
126 127 0
128 127 0
-126 -128 -127 0
-124 127 -129 0
124 -127 -129 0
129 -127 -124 0
124 127 129 0
-129 0
130 131 0
132 131 0
-130 -132 -131 0
-128 131 -133 0
128 -131 -133 0
133 -131 -128 0
128 131 133 0
-133 0
134 135 0
136 135 0
-134 -136 -135 0
-132 135 -137 0
132 -135 -137 0
137 -135 -132 0
132 135 137 0
-137 0
138 139 0
140 139 0
-138 -140 -139 0
-136 139 -141 0
136 -139 -141 0
141 -139 -136 0
136 139 141 0
-141 0
142 143 0
144 143 0
-142 -144 -143 0
-140 143 -145 0
140 -143 -145 0
145 -143 -140 0
140 143 145 0
-145 0
146 147 0
148 147 0
-146 -148 -147 0
-144 147 -149 0
144 -147 -149 0
149 -147 -144 0
144 147 149 0
-149 0
150 151 0
152 151 0
-150 -152 -151 0
-148 151 -153 0
148 -151 -153 0
153 -151 -148 0
148 151 153 0
-153 0
154 155 0
156 155 0
-154 -156 -155 0
-152 155 -157 0
152 -155 -157 0
157 -155 -152 0
152 155 157 0
-157 0
158 159 0
160 159 0
-158 -160 -159 0
-156 159 -161 0
156 -159 -161 0
161 -159 -156 0
156 159 161 0
-161 0
162 163 0
164 163 0
-162 -164 -163 0
-160 163 -165 0
160 -163 -165 0
165 -163 -160 0
160 163 165 0
-165 0
166 167 0
168 167 0
-166 -168 -167 0
-164 167 -169 0
164 -167 -169 0
169 -167 -164 0
164 167 169 0
-169 0
150 170 0
154 170 0
158 170 0
162 170 0
166 170 0
171 170 0
-172 0
-168 170 -173 0
168 -170 -173 0
173 -170 -168 0
168 170 173 0
-173 0
174 175 0
176 175 0
-174 -176 -175 0
-177 175 -178 0
177 -175 -178 0
178 -175 -177 0
177 175 178 0
-178 0
179 180 0
181 180 0
-179 -181 -180 0
-176 180 -182 0
176 -180 -182 0
182 -180 -176 0
176 180 182 0
-182 0
183 184 0
185 184 0
-183 -185 -184 0
-181 184 -186 0
181 -184 -186 0
186 -184 -181 0
181 184 186 0
-186 0
187 188 0
189 188 0
-187 -189 -188 0
-185 188 -190 0
185 -188 -190 0
190 -188 -185 0
185 188 190 0
-190 0
191 192 0
193 192 0
-191 -193 -192 0
-189 192 -194 0
189 -192 -194 0
194 -192 -189 0
189 192 194 0
-194 0
195 196 0
197 196 0
-195 -197 -196 0
-193 196 -198 0
193 -196 -198 0
198 -196 -193 0
193 196 198 0
-198 0
199 200 0
201 200 0
-199 -201 -200 0
-197 200 -202 0
197 -200 -202 0
202 -200 -197 0
197 200 202 0
-202 0
203 204 0
205 204 0
-203 -205 -204 0
-201 204 -206 0
201 -204 -206 0
206 -204 -201 0
201 204 206 0
-206 0
207 208 0
209 208 0
-207 -209 -208 0
-205 208 -210 0
205 -208 -210 0
210 -208 -205 0
205 208 210 0
-210 0
211 212 0
213 212 0
-211 -213 -212 0
-209 212 -214 0
209 -212 -214 0
214 -212 -209 0
209 212 214 0
-214 0
215 216 0
217 216 0
-215 -217 -216 0
-213 216 -218 0
213 -216 -218 0
218 -216 -213 0
213 216 218 0
-218 0
195 219 0
199 219 0
203 219 0
207 219 0
211 219 0
215 219 0
220 219 0
-221 0
-217 219 -222 0
217 -219 -222 0
222 -219 -217 0
217 219 222 0
-222 0
223 224 0
225 224 0
-223 -225 -224 0
-226 224 -227 0
226 -224 -227 0
227 -224 -226 0
226 224 227 0
-227 0
228 229 0
230 229 0
-228 -230 -229 0
-225 229 -231 0
225 -229 -231 0
231 -229 -225 0
225 229 231 0
-231 0
232 233 0
234 233 0
-232 -234 -233 0
-230 233 -235 0
230 -233 -235 0
235 -233 -230 0
230 233 235 0
-235 0
236 237 0
238 237 0
-236 -238 -237 0
-234 237 -239 0
234 -237 -239 0
239 -237 -234 0
234 237 239 0
-239 0
240 241 0
242 241 0
-240 -242 -241 0
-238 241 -243 0
238 -241 -243 0
243 -241 -238 0
238 241 243 0
-243 0
244 245 0
246 245 0
-244 -246 -245 0
-242 245 -247 0
242 -245 -247 0
247 -245 -242 0
242 245 247 0
-247 0
248 249 0
250 249 0
-248 -250 -249 0
-246 249 -251 0
246 -249 -251 0
251 -249 -246 0
246 249 251 0
-251 0
252 253 0
254 253 0
-252 -254 -253 0
-250 253 -255 0
250 -253 -255 0
255 -253 -250 0
250 253 255 0
-255 0
256 257 0
258 257 0
-256 -258 -257 0
-254 257 -259 0
254 -257 -259 0
259 -257 -254 0
254 257 259 0
-259 0
260 261 0
262 261 0
-260 -262 -261 0
-258 261 -263 0
258 -261 -263 0
263 -261 -258 0
258 261 263 0
-263 0
264 265 0
266 265 0
-264 -266 -265 0
-262 265 -267 0
262 -265 -267 0
267 -265 -262 0
262 265 267 0
-267 0
268 269 0
270 269 0
-268 -270 -269 0
-266 269 -271 0
266 -269 -271 0
271 -269 -266 0
266 269 271 0
-271 0
272 273 0
274 273 0
-272 -274 -273 0
-270 273 -275 0
270 -273 -275 0
275 -273 -270 0
270 273 275 0
-275 0
248 276 0
252 276 0
256 276 0
260 276 0
264 276 0
268 276 0
272 276 0
277 276 0
-278 0
-274 276 -279 0
274 -276 -279 0
279 -276 -274 0
274 276 279 0
-279 0
280 281 0
282 281 0
-280 -282 -281 0
-283 281 -284 0
283 -281 -284 0
284 -281 -283 0
283 281 284 0
-284 0
285 286 0
287 286 0
-285 -287 -286 0
-282 286 -288 0
282 -286 -288 0
288 -286 -282 0
282 286 288 0
-288 0
289 290 0
291 290 0
-289 -291 -290 0
-287 290 -292 0
287 -290 -292 0
292 -290 -287 0
287 290 292 0
-292 0
293 294 0
295 294 0
-293 -295 -294 0
-291 294 -296 0
291 -294 -296 0
296 -294 -291 0
291 294 296 0
-296 0
297 298 0
299 298 0
-297 -299 -298 0
-295 298 -300 0
295 -298 -300 0
300 -298 -295 0
295 298 300 0
-300 0
301 302 0
303 302 0
-301 -303 -302 0
-299 302 -304 0
299 -302 -304 0
304 -302 -299 0
299 302 304 0
-304 0
305 306 0
307 306 0
-305 -307 -306 0
-303 306 -308 0
303 -306 -308 0
308 -306 -303 0
303 306 308 0
-308 0
309 310 0
311 310 0
-309 -311 -310 0
-307 310 -312 0
307 -310 -312 0
312 -310 -307 0
307 310 312 0
-312 0
313 314 0
315 314 0
-313 -315 -314 0
-311 314 -316 0
311 -314 -316 0
316 -314 -311 0
311 314 316 0
-316 0
317 318 0
319 318 0
-317 -319 -318 0
-315 318 -320 0
315 -318 -320 0
320 -318 -315 0
315 318 320 0
-320 0
321 322 0
323 322 0
-321 -323 -322 0
-319 322 -324 0
319 -322 -324 0
324 -322 -319 0
319 322 324 0
-324 0
325 326 0
327 326 0
-325 -327 -326 0
-323 326 -328 0
323 -326 -328 0
328 -326 -323 0
323 326 328 0
-328 0
305 329 0
309 329 0
313 329 0
317 329 0
321 329 0
325 329 0
330 329 0
-331 0
-327 329 -332 0
327 -329 -332 0
332 -329 -327 0
327 329 332 0
-332 0
333 334 0
335 334 0
-333 -335 -334 0
-336 334 -337 0
336 -334 -337 0
337 -334 -336 0
336 334 337 0
-337 0
338 339 0
340 339 0
-338 -340 -339 0
-335 339 -341 0
335 -339 -341 0
341 -339 -335 0
335 339 341 0
-341 0
342 343 0
344 343 0
-342 -344 -343 0
-340 343 -345 0
340 -343 -345 0
345 -343 -340 0
340 343 345 0
-345 0
346 347 0
348 347 0
-346 -348 -347 0
-344 347 -349 0
344 -347 -349 0
349 -347 -344 0
344 347 349 0
-349 0
350 351 0
352 351 0
-350 -352 -351 0
-348 351 -353 0
348 -351 -353 0
353 -351 -348 0
348 351 353 0
-353 0
354 355 0
356 355 0
-354 -356 -355 0
-352 355 -357 0
352 -355 -357 0
357 -355 -352 0
352 355 357 0
-357 0
111 358 0
359 358 0
-111 -359 -358 0
-356 358 -360 0
356 -358 -360 0
360 -358 -356 0
356 358 360 0
-360 0
361 362 0
363 362 0
-361 -363 -362 0
-364 362 -365 0
364 -362 -365 0
365 -362 -364 0
364 362 365 0
-365 0
366 367 0
368 367 0
-366 -368 -367 0
-363 367 -369 0
363 -367 -369 0
369 -367 -363 0
363 367 369 0
-369 0
370 371 0
372 371 0
-370 -372 -371 0
-368 371 -373 0
368 -371 -373 0
373 -371 -368 0
368 371 373 0
-373 0
374 375 0
376 375 0
-374 -376 -375 0
-372 375 -377 0
372 -375 -377 0
377 -375 -372 0
372 375 377 0
-377 0
378 379 0
380 379 0
-378 -380 -379 0
-376 379 -381 0
376 -379 -381 0
381 -379 -376 0
376 379 381 0
-381 0
382 383 0
384 383 0
-382 -384 -383 0
-380 383 -385 0
380 -383 -385 0
385 -383 -380 0
380 383 385 0
-385 0
386 387 0
388 387 0
-386 -388 -387 0
-384 387 -389 0
384 -387 -389 0
389 -387 -384 0
384 387 389 0
-389 0
390 391 0
392 391 0
-390 -392 -391 0
-388 391 -393 0
388 -391 -393 0
393 -391 -388 0
388 391 393 0
-393 0
394 395 0
396 395 0
-394 -396 -395 0
-392 395 -397 0
392 -395 -397 0
397 -395 -392 0
392 395 397 0
-397 0
378 398 0
382 398 0
386 398 0
390 398 0
394 398 0
399 398 0
-400 0
-396 398 -401 0
396 -398 -401 0
401 -398 -396 0
396 398 401 0
-401 0
402 403 0
404 403 0
-402 -404 -403 0
-405 403 -406 0
405 -403 -406 0
406 -403 -405 0
405 403 406 0
-406 0
407 408 0
409 408 0
-407 -409 -408 0
-404 408 -410 0
404 -408 -410 0
410 -408 -404 0
404 408 410 0
-410 0
411 412 0
413 412 0
-411 -413 -412 0
-409 412 -414 0
409 -412 -414 0
414 -412 -409 0
409 412 414 0
-414 0
415 416 0
417 416 0
-415 -417 -416 0
-413 416 -418 0
413 -416 -418 0
418 -416 -413 0
413 416 418 0
-418 0
419 420 0
421 420 0
-419 -421 -420 0
-417 420 -422 0
417 -420 -422 0
422 -420 -417 0
417 420 422 0
-422 0
423 424 0
425 424 0
-423 -425 -424 0
-421 424 -426 0
421 -424 -426 0
426 -424 -421 0
421 424 426 0
-426 0
427 428 0
429 428 0
-427 -429 -428 0
-425 428 -430 0
425 -428 -430 0
430 -428 -425 0
425 428 430 0
-430 0
431 432 0
433 432 0
-431 -433 -432 0
-429 432 -434 0
429 -432 -434 0
434 -432 -429 0
429 432 434 0
-434 0
435 436 0
437 436 0
-435 -437 -436 0
-433 436 -438 0
433 -436 -438 0
438 -436 -433 0
433 436 438 0
-438 0
439 440 0
441 440 0
-439 -441 -440 0
-437 440 -442 0
437 -440 -442 0
442 -440 -437 0
437 440 442 0
-442 0
443 444 0
445 444 0
-443 -445 -444 0
-441 444 -446 0
441 -444 -446 0
446 -444 -441 0
441 444 446 0
-446 0
447 448 0
449 448 0
-447 -449 -448 0
-445 448 -450 0
445 -448 -450 0
450 -448 -445 0
445 448 450 0
-450 0
423 451 0
427 451 0
431 451 0
435 451 0
439 451 0
443 451 0
447 451 0
452 451 0
-453 0
-449 451 -454 0
449 -451 -454 0
454 -451 -449 0
449 451 454 0
-454 0
455 456 0
457 456 0
-455 -457 -456 0
-458 456 -459 0
458 -456 -459 0
459 -456 -458 0
458 456 459 0
-459 0
460 461 0
462 461 0
-460 -462 -461 0
-457 461 -463 0
457 -461 -463 0
463 -461 -457 0
457 461 463 0
-463 0
464 465 0
466 465 0
-464 -466 -465 0
-462 465 -467 0
462 -465 -467 0
467 -465 -462 0
462 465 467 0
-467 0
468 469 0
470 469 0
-468 -470 -469 0
-466 469 -471 0
466 -469 -471 0
471 -469 -466 0
466 469 471 0
-471 0
472 473 0
474 473 0
-472 -474 -473 0
-470 473 -475 0
470 -473 -475 0
475 -473 -470 0
470 473 475 0
-475 0
476 477 0
478 477 0
-476 -478 -477 0
-474 477 -479 0
474 -477 -479 0
479 -477 -474 0
474 477 479 0
-479 0
480 481 0
482 481 0
-480 -482 -481 0
-478 481 -483 0
478 -481 -483 0
483 -481 -478 0
478 481 483 0
-483 0
484 485 0
486 485 0
-484 -486 -485 0
-482 485 -487 0
482 -485 -487 0
487 -485 -482 0
482 485 487 0
-487 0
488 489 0
490 489 0
-488 -490 -489 0
-486 489 -491 0
486 -489 -491 0
491 -489 -486 0
486 489 491 0
-491 0
492 493 0
494 493 0
-492 -494 -493 0
-490 493 -495 0
490 -493 -495 0
495 -493 -490 0
490 493 495 0
-495 0
496 497 0
498 497 0
-496 -498 -497 0
-494 497 -499 0
494 -497 -499 0
499 -497 -494 0
494 497 499 0
-499 0
500 501 0
502 501 0
-500 -502 -501 0
-498 501 -503 0
498 -501 -503 0
503 -501 -498 0
498 501 503 0
-503 0
480 504 0
484 504 0
488 504 0
492 504 0
496 504 0
500 504 0
505 504 0
-506 0
-502 504 -507 0
502 -504 -507 0
507 -504 -502 0
502 504 507 0
-507 0
508 -2 -509 0
2 -508 -509 0
-508 -2 509 0
2 508 509 0
-509 0
510 -3 -511 0
3 -510 -511 0
-510 -3 511 0
3 510 511 0
-511 0
512 -8 -513 0
8 -512 -513 0
-512 -8 513 0
8 512 513 0
-513 0
514 -12 -515 0
12 -514 -515 0
-514 -12 515 0
12 514 515 0
-515 0
516 -16 -517 0
16 -516 -517 0
-516 -16 517 0
16 516 517 0
-517 0
518 -20 -519 0
20 -518 -519 0
-518 -20 519 0
20 518 519 0
-519 0
520 -24 -521 0
24 -520 -521 0
-520 -24 521 0
24 520 521 0
-521 0
522 -28 -523 0
28 -522 -523 0
-522 -28 523 0
28 522 523 0
-523 0
524 -32 -525 0
32 -524 -525 0
-524 -32 525 0
32 524 525 0
-525 0
526 -36 -527 0
36 -526 -527 0
-526 -36 527 0
36 526 527 0
-527 0
528 -40 -529 0
40 -528 -529 0
-528 -40 529 0
40 528 529 0
-529 0
530 -44 -531 0
44 -530 -531 0
-530 -44 531 0
44 530 531 0
-531 0
532 -48 -533 0
48 -532 -533 0
-532 -48 533 0
48 532 533 0
-533 0
534 -52 -535 0
52 -534 -535 0
-534 -52 535 0
52 534 535 0
-535 0
536 -56 -537 0
56 -536 -537 0
-536 -56 537 0
56 536 537 0
-537 0
538 -61 -539 0
61 -538 -539 0
-538 -61 539 0
61 538 539 0
-539 0
540 -64 -541 0
64 -540 -541 0
-540 -64 541 0
64 540 541 0
-541 0
542 -69 -543 0
69 -542 -543 0
-542 -69 543 0
69 542 543 0
-543 0
544 -73 -545 0
73 -544 -545 0
-544 -73 545 0
73 544 545 0
-545 0
546 -77 -547 0
77 -546 -547 0
-546 -77 547 0
77 546 547 0
-547 0
548 -81 -549 0
81 -548 -549 0
-548 -81 549 0
81 548 549 0
-549 0
550 -85 -551 0
85 -550 -551 0
-550 -85 551 0
85 550 551 0
-551 0
552 -89 -553 0
89 -552 -553 0
-552 -89 553 0
89 552 553 0
-553 0
554 -93 -555 0
93 -554 -555 0
-554 -93 555 0
93 554 555 0
-555 0
556 -97 -557 0
97 -556 -557 0
-556 -97 557 0
97 556 557 0
-557 0
558 -101 -559 0
101 -558 -559 0
-558 -101 559 0
101 558 559 0
-559 0
560 -105 -561 0
105 -560 -561 0
-560 -105 561 0
105 560 561 0
-561 0
562 -109 -563 0
109 -562 -563 0
-562 -109 563 0
109 562 563 0
-563 0
564 -114 -565 0
114 -564 -565 0
-564 -114 565 0
114 564 565 0
-565 0
566 -117 -567 0
117 -566 -567 0
-566 -117 567 0
117 566 567 0
-567 0
568 -122 -569 0
122 -568 -569 0
-568 -122 569 0
122 568 569 0
-569 0
570 -126 -571 0
126 -570 -571 0
-570 -126 571 0
126 570 571 0
-571 0
572 -130 -573 0
130 -572 -573 0
-572 -130 573 0
130 572 573 0
-573 0
574 -134 -575 0
134 -574 -575 0
-574 -134 575 0
134 574 575 0
-575 0
576 -138 -577 0
138 -576 -577 0
-576 -138 577 0
138 576 577 0
-577 0
578 -142 -579 0
142 -578 -579 0
-578 -142 579 0
142 578 579 0
-579 0
580 -146 -581 0
146 -580 -581 0
-580 -146 581 0
146 580 581 0
-581 0
582 -150 -583 0
150 -582 -583 0
-582 -150 583 0
150 582 583 0
-583 0
584 -154 -585 0
154 -584 -585 0
-584 -154 585 0
154 584 585 0
-585 0
586 -158 -587 0
158 -586 -587 0
-586 -158 587 0
158 586 587 0
-587 0
588 -162 -589 0
162 -588 -589 0
-588 -162 589 0
162 588 589 0
-589 0
590 -166 -591 0
166 -590 -591 0
-590 -166 591 0
166 590 591 0
-591 0
592 -171 -593 0
171 -592 -593 0
-592 -171 593 0
171 592 593 0
-593 0
594 -174 -595 0
174 -594 -595 0
-594 -174 595 0
174 594 595 0
-595 0
596 -179 -597 0
179 -596 -597 0
-596 -179 597 0
179 596 597 0
-597 0
598 -183 -599 0
183 -598 -599 0
-598 -183 599 0
183 598 599 0
-599 0
600 -187 -601 0
187 -600 -601 0
-600 -187 601 0
187 600 601 0
-601 0
602 -191 -603 0
191 -602 -603 0
-602 -191 603 0
191 602 603 0
-603 0
604 -195 -605 0
195 -604 -605 0
-604 -195 605 0
195 604 605 0
-605 0
606 -199 -607 0
199 -606 -607 0
-606 -199 607 0
199 606 607 0
-607 0
608 -203 -609 0
203 -608 -609 0
-608 -203 609 0
203 608 609 0
-609 0
610 -207 -611 0
207 -610 -611 0
-610 -207 611 0
207 610 611 0
-611 0
612 -211 -613 0
211 -612 -613 0
-612 -211 613 0
211 612 613 0
-613 0
614 -215 -615 0
215 -614 -615 0
-614 -215 615 0
215 614 615 0
-615 0
616 -220 -617 0
220 -616 -617 0
-616 -220 617 0
220 616 617 0
-617 0
618 -223 -619 0
223 -618 -619 0
-618 -223 619 0
223 618 619 0
-619 0
620 -228 -621 0
228 -620 -621 0
-620 -228 621 0
228 620 621 0
-621 0
622 -232 -623 0
232 -622 -623 0
-622 -232 623 0
232 622 623 0
-623 0
624 -236 -625 0
236 -624 -625 0
-624 -236 625 0
236 624 625 0
-625 0
626 -240 -627 0
240 -626 -627 0
-626 -240 627 0
240 626 627 0
-627 0
628 -244 -629 0
244 -628 -629 0
-628 -244 629 0
244 628 629 0
-629 0
630 -248 -631 0
248 -630 -631 0
-630 -248 631 0
248 630 631 0
-631 0
632 -252 -633 0
252 -632 -633 0
-632 -252 633 0
252 632 633 0
-633 0
634 -256 -635 0
256 -634 -635 0
-634 -256 635 0
256 634 635 0
-635 0
636 -260 -637 0
260 -636 -637 0
-636 -260 637 0
260 636 637 0
-637 0
638 -264 -639 0
264 -638 -639 0
-638 -264 639 0
264 638 639 0
-639 0
640 -268 -641 0
268 -640 -641 0
-640 -268 641 0
268 640 641 0
-641 0
642 -272 -643 0
272 -642 -643 0
-642 -272 643 0
272 642 643 0
-643 0
644 -277 -645 0
277 -644 -645 0
-644 -277 645 0
277 644 645 0
-645 0
646 -280 -647 0
280 -646 -647 0
-646 -280 647 0
280 646 647 0
-647 0
648 -285 -649 0
285 -648 -649 0
-648 -285 649 0
285 648 649 0
-649 0
650 -289 -651 0
289 -650 -651 0
-650 -289 651 0
289 650 651 0
-651 0
652 -293 -653 0
293 -652 -653 0
-652 -293 653 0
293 652 653 0
-653 0
654 -297 -655 0
297 -654 -655 0
-654 -297 655 0
297 654 655 0
-655 0
656 -301 -657 0
301 -656 -657 0
-656 -301 657 0
301 656 657 0
-657 0
658 -305 -659 0
305 -658 -659 0
-658 -305 659 0
305 658 659 0
-659 0
660 -309 -661 0
309 -660 -661 0
-660 -309 661 0
309 660 661 0
-661 0
662 -313 -663 0
313 -662 -663 0
-662 -313 663 0
313 662 663 0
-663 0
664 -317 -665 0
317 -664 -665 0
-664 -317 665 0
317 664 665 0
-665 0
666 -321 -667 0
321 -666 -667 0
-666 -321 667 0
321 666 667 0
-667 0
668 -325 -669 0
325 -668 -669 0
-668 -325 669 0
325 668 669 0
-669 0
670 -330 -671 0
330 -670 -671 0
-670 -330 671 0
330 670 671 0
-671 0
672 -333 -673 0
333 -672 -673 0
-672 -333 673 0
333 672 673 0
-673 0
674 -338 -675 0
338 -674 -675 0
-674 -338 675 0
338 674 675 0
-675 0
676 -342 -677 0
342 -676 -677 0
-676 -342 677 0
342 676 677 0
-677 0
678 -346 -679 0
346 -678 -679 0
-678 -346 679 0
346 678 679 0
-679 0
680 -350 -681 0
350 -680 -681 0
-680 -350 681 0
350 680 681 0
-681 0
682 -354 -683 0
354 -682 -683 0
-682 -354 683 0
354 682 683 0
-683 0
684 -359 -685 0
359 -684 -685 0
-684 -359 685 0
359 684 685 0
-685 0
686 -361 -687 0
361 -686 -687 0
-686 -361 687 0
361 686 687 0
-687 0
688 -366 -689 0
366 -688 -689 0
-688 -366 689 0
366 688 689 0
-689 0
690 -370 -691 0
370 -690 -691 0
-690 -370 691 0
370 690 691 0
-691 0
692 -374 -693 0
374 -692 -693 0
-692 -374 693 0
374 692 693 0
-693 0
694 -378 -695 0
378 -694 -695 0
-694 -378 695 0
378 694 695 0
-695 0
696 -382 -697 0
382 -696 -697 0
-696 -382 697 0
382 696 697 0
-697 0
698 -386 -699 0
386 -698 -699 0
-698 -386 699 0
386 698 699 0
-699 0
700 -390 -701 0
390 -700 -701 0
-700 -390 701 0
390 700 701 0
-701 0
702 -394 -703 0
394 -702 -703 0
-702 -394 703 0
394 702 703 0
-703 0
704 -399 -705 0
399 -704 -705 0
-704 -399 705 0
399 704 705 0
-705 0
706 -402 -707 0
402 -706 -707 0
-706 -402 707 0
402 706 707 0
-707 0
708 -407 -709 0
407 -708 -709 0
-708 -407 709 0
407 708 709 0
-709 0
710 -411 -711 0
411 -710 -711 0
-710 -411 711 0
411 710 711 0
-711 0
712 -415 -713 0
415 -712 -713 0
-712 -415 713 0
415 712 713 0
-713 0
714 -419 -715 0
419 -714 -715 0
-714 -419 715 0
419 714 715 0
-715 0
716 -423 -717 0
423 -716 -717 0
-716 -423 717 0
423 716 717 0
-717 0
718 -427 -719 0
427 -718 -719 0
-718 -427 719 0
427 718 719 0
-719 0
720 -431 -721 0
431 -720 -721 0
-720 -431 721 0
431 720 721 0
-721 0
722 -435 -723 0
435 -722 -723 0
-722 -435 723 0
435 722 723 0
-723 0
724 -439 -725 0
439 -724 -725 0
-724 -439 725 0
439 724 725 0
-725 0
726 -443 -727 0
443 -726 -727 0
-726 -443 727 0
443 726 727 0
-727 0
728 -447 -729 0
447 -728 -729 0
-728 -447 729 0
447 728 729 0
-729 0
730 -452 -731 0
452 -730 -731 0
-730 -452 731 0
452 730 731 0
-731 0
732 -455 -733 0
455 -732 -733 0
-732 -455 733 0
455 732 733 0
-733 0
734 -460 -735 0
460 -734 -735 0
-734 -460 735 0
460 734 735 0
-735 0
736 -464 -737 0
464 -736 -737 0
-736 -464 737 0
464 736 737 0
-737 0
738 -468 -739 0
468 -738 -739 0
-738 -468 739 0
468 738 739 0
-739 0
740 -472 -741 0
472 -740 -741 0
-740 -472 741 0
472 740 741 0
-741 0
742 -476 -743 0
476 -742 -743 0
-742 -476 743 0
476 742 743 0
-743 0
744 -480 -745 0
480 -744 -745 0
-744 -480 745 0
480 744 745 0
-745 0
746 -484 -747 0
484 -746 -747 0
-746 -484 747 0
484 746 747 0
-747 0
748 -488 -749 0
488 -748 -749 0
-748 -488 749 0
488 748 749 0
-749 0
750 -492 -751 0
492 -750 -751 0
-750 -492 751 0
492 750 751 0
-751 0
752 -496 -753 0
496 -752 -753 0
-752 -496 753 0
496 752 753 0
-753 0
754 -500 -755 0
500 -754 -755 0
-754 -500 755 0
500 754 755 0
-755 0
756 -505 -757 0
505 -756 -757 0
-756 -505 757 0
505 756 757 0
-757 0
1 0
-6 0
-67 0
-120 0
-177 0
-226 0
-283 0
-336 0
-364 0
-405 0
-458 0
